\* Pricing_problem *\
Minimize
OBJ: 0.25 M_0_0 + 0.125 M_0_1 + 0.5 M_0_2 + 0.661453125 M_0_3 + 0.25 M_1_0
 + 0.411453125 M_1_1 + 0.5 M_1_2 + 0.661453125 M_1_3 + 0.536453125 M_2_0
 + 0.125 M_2_1 + 0.5 M_2_2 + 0.375 M_2_3 + 0.375 M_3_0 + 0.25 M_3_1
 + 0.5 M_3_2 + 0.125 M_3_3 + 0.125 M_4_0 + 0.25 M_4_1 + 0.5 M_4_2
 + 0.375 M_4_3 + 0.25 M_5_0 + 0.125 M_5_1 + 0.5 M_5_2 + 0.661453125 M_5_3
 + 0.25 M_6_0 + 0.411453125 M_6_1 + 0.5 M_6_2 + 0.661453125 M_6_3
 + 0.125 M_7_0 + 0.375 M_7_1 + 0.5 M_7_2 + 0.3932265625 M_7_3
Subject To
CUTOFF1_0_0: - M_0_0 + t_0 >= 0
CUTOFF1_0_1: - 2 M_0_1 + t_1 >= 0
CUTOFF1_0_2: - 2 M_0_2 + t_2 >= 0
CUTOFF1_0_3: - 2 M_0_3 + t_3 >= 0
CUTOFF1_1_0: - 2 M_1_0 + t_0 >= 0
CUTOFF1_1_1: - 2 M_1_1 + t_1 >= 0
CUTOFF1_1_2: - M_1_2 + t_2 >= 0
CUTOFF1_1_3: - 2 M_1_3 + t_3 >= 0
CUTOFF1_2_0: - 2 M_2_0 + t_0 >= 0
CUTOFF1_2_1: - 2 M_2_1 + t_1 >= 0
CUTOFF1_2_2: - 2 M_2_2 + t_2 >= 0
CUTOFF1_2_3: - M_2_3 + t_3 >= 0
CUTOFF1_3_0: - 2 M_3_0 + t_0 >= 0
CUTOFF1_3_1: - 2 M_3_1 + t_1 >= 0
CUTOFF1_3_2: - M_3_2 + t_2 >= 0
CUTOFF1_3_3: - 2 M_3_3 + t_3 >= 0
CUTOFF1_4_0: - 2 M_4_0 + t_0 >= 0
CUTOFF1_4_1: - M_4_1 + t_1 >= 0
CUTOFF1_4_2: - 2 M_4_2 + t_2 >= 0
CUTOFF1_4_3: - 2 M_4_3 + t_3 >= 0
CUTOFF1_5_0: - M_5_0 + t_0 >= 0
CUTOFF1_5_1: - 2 M_5_1 + t_1 >= 0
CUTOFF1_5_2: - 2 M_5_2 + t_2 >= 0
CUTOFF1_5_3: - 2 M_5_3 + t_3 >= 0
CUTOFF1_6_0: - 2 M_6_0 + t_0 >= 0
CUTOFF1_6_1: - 2 M_6_1 + t_1 >= 0
CUTOFF1_6_2: - M_6_2 + t_2 >= 0
CUTOFF1_6_3: - 2 M_6_3 + t_3 >= 0
CUTOFF1_7_0: - M_7_0 + t_0 >= 0
CUTOFF1_7_1: - 2 M_7_1 + t_1 >= 0
CUTOFF1_7_2: - 2 M_7_2 + t_2 >= 0
CUTOFF1_7_3: - 2 M_7_3 + t_3 >= 0
CUTOFF2_0_0: - 3 M_0_0 - 3 M_0_1 + t_0 <= 1
CUTOFF2_0_1: - 3 M_0_1 + t_1 <= 2
CUTOFF2_0_2: - 3 M_0_0 - 3 M_0_1 - 3 M_0_2 - 3 M_0_3 + t_2 <= 2
CUTOFF2_0_3: - 3 M_0_0 - 3 M_0_1 - 3 M_0_3 + t_3 <= 2
CUTOFF2_1_0: - 3 M_1_0 - 3 M_1_1 + t_0 <= 2
CUTOFF2_1_1: - 3 M_1_1 + t_1 <= 2
CUTOFF2_1_2: - 3 M_1_0 - 3 M_1_1 - 3 M_1_2 - 3 M_1_3 + t_2 <= 1
CUTOFF2_1_3: - 3 M_1_0 - 3 M_1_1 - 3 M_1_3 + t_3 <= 2
CUTOFF2_2_0: - 3 M_2_0 - 3 M_2_1 + t_0 <= 2
CUTOFF2_2_1: - 3 M_2_1 + t_1 <= 2
CUTOFF2_2_2: - 3 M_2_0 - 3 M_2_1 - 3 M_2_2 - 3 M_2_3 + t_2 <= 2
CUTOFF2_2_3: - 3 M_2_0 - 3 M_2_1 - 3 M_2_3 + t_3 <= 1
CUTOFF2_3_0: - 3 M_3_0 - 3 M_3_1 - 3 M_3_3 + t_0 <= 2
CUTOFF2_3_1: - 3 M_3_1 - 3 M_3_3 + t_1 <= 2
CUTOFF2_3_2: - 3 M_3_0 - 3 M_3_1 - 3 M_3_2 - 3 M_3_3 + t_2 <= 1
CUTOFF2_3_3: - 3 M_3_3 + t_3 <= 2
CUTOFF2_4_0: - 3 M_4_0 + t_0 <= 2
CUTOFF2_4_1: - 3 M_4_0 - 3 M_4_1 + t_1 <= 1
CUTOFF2_4_2: - 3 M_4_0 - 3 M_4_1 - 3 M_4_2 - 3 M_4_3 + t_2 <= 2
CUTOFF2_4_3: - 3 M_4_0 - 3 M_4_1 - 3 M_4_3 + t_3 <= 2
CUTOFF2_5_0: - 3 M_5_0 - 3 M_5_1 + t_0 <= 1
CUTOFF2_5_1: - 3 M_5_1 + t_1 <= 2
CUTOFF2_5_2: - 3 M_5_0 - 3 M_5_1 - 3 M_5_2 - 3 M_5_3 + t_2 <= 2
CUTOFF2_5_3: - 3 M_5_0 - 3 M_5_1 - 3 M_5_3 + t_3 <= 2
CUTOFF2_6_0: - 3 M_6_0 - 3 M_6_1 + t_0 <= 2
CUTOFF2_6_1: - 3 M_6_1 + t_1 <= 2
CUTOFF2_6_2: - 3 M_6_0 - 3 M_6_1 - 3 M_6_2 - 3 M_6_3 + t_2 <= 1
CUTOFF2_6_3: - 3 M_6_0 - 3 M_6_1 - 3 M_6_3 + t_3 <= 2
CUTOFF2_7_0: - 3 M_7_0 + t_0 <= 1
CUTOFF2_7_1: - 3 M_7_0 - 3 M_7_1 - 3 M_7_3 + t_1 <= 2
CUTOFF2_7_2: - 3 M_7_0 - 3 M_7_1 - 3 M_7_2 - 3 M_7_3 + t_2 <= 2
CUTOFF2_7_3: - 3 M_7_0 - 3 M_7_3 + t_3 <= 2
CUTOFF3_0: M_0_0 + M_1_0 + M_2_0 + M_3_0 + M_4_0 + M_5_0 + M_6_0 + M_7_0
 - 2 f_0 >= 0
CUTOFF3_1: M_0_1 + M_1_1 + M_2_1 + M_3_1 + M_4_1 + M_5_1 + M_6_1 + M_7_1
 - 2 f_1 >= 0
CUTOFF3_2: M_0_2 + M_1_2 + M_2_2 + M_3_2 + M_4_2 + M_5_2 + M_6_2 + M_7_2
 - 2 f_2 >= 0
CUTOFF3_3: M_0_3 + M_1_3 + M_2_3 + M_3_3 + M_4_3 + M_5_3 + M_6_3 + M_7_3
 - 2 f_3 >= 0
CUTOFF4_0: 3 f_0 + t_0 >= 3
CUTOFF4_1: 3 f_1 + t_1 >= 3
CUTOFF4_2: 3 f_2 + t_2 >= 3
CUTOFF4_3: 3 f_3 + t_3 >= 3
EXCL_M_1: M_0_1 + M_1_2 + M_2_3 + M_3_3 + M_4_0 + M_5_1 + M_6_2 + M_7_0 <= 7
EXCL_M_10: M_0_0 + M_1_3 + M_2_1 + M_3_3 + M_4_1 + M_5_2 + M_6_2 + M_7_0 <= 7
EXCL_M_100: M_0_0 + M_1_2 + M_2_3 + M_3_1 + M_4_1 + M_5_0 + M_6_2 + M_7_3 <= 7
EXCL_M_101: M_0_2 + M_1_2 + M_2_3 + M_3_1 + M_4_1 + M_5_0 + M_6_3 + M_7_0 <= 7
EXCL_M_102: M_0_0 + M_1_3 + M_2_1 + M_3_2 + M_4_1 + M_5_0 + M_6_3 + M_7_2 <= 7
EXCL_M_103: M_0_0 + M_1_3 + M_2_1 + M_3_2 + M_4_1 + M_5_0 + M_6_3 + M_7_2 <= 7
EXCL_M_11: M_0_0 + M_1_1 + M_2_3 + M_3_3 + M_4_1 + M_5_2 + M_6_2 + M_7_0 <= 7
EXCL_M_12: M_0_0 + M_1_2 + M_2_3 + M_3_3 + M_4_1 + M_5_1 + M_6_2 + M_7_0 <= 7
EXCL_M_13: M_0_0 + M_1_2 + M_2_3 + M_3_3 + M_4_1 + M_5_1 + M_6_2 + M_7_0 <= 7
EXCL_M_14: M_0_0 + M_1_2 + M_2_1 + M_3_3 + M_4_1 + M_5_3 + M_6_2 + M_7_0 <= 7
EXCL_M_15: M_0_0 + M_1_3 + M_2_1 + M_3_3 + M_4_1 + M_5_2 + M_6_2 + M_7_0 <= 7
EXCL_M_16: M_0_0 + M_1_2 + M_2_1 + M_3_3 + M_4_1 + M_5_3 + M_6_2 + M_7_0 <= 7
EXCL_M_17: M_0_1 - 4.4408920985e-16 M_1_2 + 1 M_1_3 + M_2_3 + 1 M_3_2
 + 1 M_4_0 - 2.22044604925e-16 M_4_1 + 1 M_5_1 + 2.22044604925e-16 M_5_2
 + M_6_2 - 4.4408920985e-16 M_6_3 + M_7_0 <= 7
EXCL_M_18: M_0_0 - 4.4408920985e-16 M_1_1 + M_1_2 + M_2_1
 + 1.11022302463e-16 M_3_2 + 1 M_3_3 + M_4_1 + M_5_0 + 6.66133814775e-16 M_6_1
 + 1 M_6_2 + M_7_3 <= 7
EXCL_M_19: M_0_1 + M_1_2 + M_2_3 + M_3_2 + M_4_0 + M_5_1 + M_6_3 + M_7_0 <= 7
EXCL_M_2: M_0_1 + M_1_2 + M_2_3 + M_3_3 + M_4_0 + M_5_1 + M_6_2 + M_7_0 <= 7
EXCL_M_20: M_0_3 + M_1_2 + M_2_1 + M_3_3 + M_4_1 + M_5_0 + M_6_2 + M_7_0 <= 7
EXCL_M_21: M_0_1 + M_1_2 + M_2_3 + M_3_2 + M_4_0 + M_5_1 + M_6_3 + M_7_0 <= 7
EXCL_M_22: M_0_0 + M_1_2 + M_2_1 + M_3_3 + M_4_1 + M_5_0 + M_6_2 + M_7_3 <= 7
EXCL_M_23: M_0_0 + M_1_2 + M_2_1 + M_3_3 + M_4_1 + M_5_2 + M_6_3 + M_7_0 <= 7
EXCL_M_24: M_0_0 + M_1_2 + M_2_1 + M_3_3 + M_4_1 + M_5_2 + M_6_3 + M_7_0 <= 7
EXCL_M_25: M_0_2 + M_1_2 + M_2_3 + M_3_3 + M_4_1 + M_5_0 + M_6_1 + M_7_0 <= 7
EXCL_M_26: M_0_1 + M_1_3 + M_2_3 + M_3_2 + M_4_0 + M_5_1 + M_6_2 + M_7_0 <= 7
EXCL_M_27: M_0_2 + M_1_3 + M_2_1 + M_3_3 + M_4_1 + M_5_0 + M_6_2 + M_7_0 <= 7
EXCL_M_28: M_0_2 + M_1_2 + M_2_3 + M_3_3 + M_4_1 + M_5_0 + M_6_1 + M_7_0 <= 7
EXCL_M_29: M_0_2 + M_1_3 + M_2_1 + M_3_3 + M_4_1 + M_5_0 + M_6_2 + M_7_0 <= 7
EXCL_M_3: M_0_1 + M_1_2 + M_2_3 + M_3_3 + M_4_1 + M_5_0 + M_6_2 + M_7_0 <= 7
EXCL_M_30: M_0_3 + M_1_2 + M_2_1 + M_3_3 + M_4_1 + M_5_0 + M_6_2 + M_7_0 <= 7
EXCL_M_31: M_0_2 + M_1_2 + M_2_1 + M_3_3 + M_4_1 + M_5_0 + M_6_3 + M_7_0 <= 7
EXCL_M_32: M_0_2 + M_1_1 + M_2_3 + M_3_3 + M_4_1 + M_5_0 + M_6_2 + M_7_0 <= 7
EXCL_M_33: M_0_0 + M_1_2 + M_2_1 + M_3_3 + M_4_1 + M_5_0 + M_6_3 + M_7_2 <= 7
EXCL_M_34: M_0_0 + M_1_2 + M_2_3 + M_3_3 + M_4_1 + M_5_0 + M_6_1 + M_7_2 <= 7
EXCL_M_35: M_0_0 + M_1_2 + M_2_3 + M_3_3 + M_4_1 + M_5_0 + M_6_1 + M_7_2 <= 7
EXCL_M_36: M_0_0 + M_1_1 + M_2_3 + M_3_3 + M_4_1 + M_5_0 + M_6_2 + M_7_2 <= 7
EXCL_M_37: M_0_0 + M_1_1 + M_2_3 + M_3_3 + M_4_1 + M_5_0 + M_6_2 + M_7_2 <= 7
EXCL_M_38: M_0_0 + M_1_3 + M_2_1 + M_3_3 + M_4_1 + M_5_0 + M_6_2 + M_7_2 <= 7
EXCL_M_39: M_0_0 + M_1_2 + M_2_1 + M_3_3 + M_4_1 + M_5_0 + M_6_3 + M_7_2 <= 7
EXCL_M_4: M_0_2 + M_1_2 + M_2_1 + M_3_3 + M_4_1 + M_5_0 + M_6_3 + M_7_0 <= 7
EXCL_M_40: M_0_0 + M_1_3 + M_2_1 + M_3_3 + M_4_1 + M_5_0 + M_6_2 + M_7_2 <= 7
EXCL_M_41: M_0_0 + M_1_2 + M_2_3 + M_3_2 + M_4_1 + M_5_1 + M_6_3 + M_7_0 <= 7
EXCL_M_42: M_0_1 + M_1_3 + M_2_3 + M_3_2 + M_4_1 + 1 M_5_0 + M_6_2 + M_7_0
 <= 7
EXCL_M_43: M_0_1 + M_1_2 + M_2_3 + M_3_2 + M_4_1 + M_5_0 + M_6_3 + M_7_0 <= 7
EXCL_M_44: M_0_1 + M_1_2 + M_2_3 + M_3_2 + M_4_1 + M_5_0 + M_6_3 + M_7_0 <= 7
EXCL_M_45: M_0_0 + 4.16333634234e-17 M_1_1 + M_1_2 + M_2_3 + M_3_2 + M_4_1
 + M_5_3 + M_6_1 + M_7_0 <= 7
EXCL_M_46: M_0_0 + M_1_2 + M_2_3 + M_3_2 + M_4_1 + M_5_3 + M_6_1 + M_7_0 <= 7
EXCL_M_47: M_0_0 + M_1_2 + M_2_3 + M_3_2 + M_4_1 + M_5_0 + 1 M_6_1
 + 3.33066907388e-16 M_6_2 + M_7_3 <= 7
EXCL_M_48: M_0_0 + M_1_1 + M_2_3 + M_3_2 + M_4_1 + M_5_2 + M_6_3 + M_7_0 <= 7
EXCL_M_49: M_0_0 + M_1_3 + M_2_1 + M_3_2 + M_4_1 + M_5_2 + M_6_3 + M_7_0 <= 7
EXCL_M_5: M_0_1 + M_1_2 + M_2_3 + M_3_3 + M_4_1 + M_5_0 + M_6_2 + M_7_0 <= 7
EXCL_M_50: M_0_0 + M_1_1 + M_2_3 + M_3_2 + M_4_1 + M_5_3 + M_6_2 + M_7_0 <= 7
EXCL_M_51: M_0_0 + M_1_1 + M_2_3 + M_3_2 + M_4_1 + M_5_3 + M_6_2 + M_7_0 <= 7
EXCL_M_52: M_0_0 + M_1_3 + M_2_1 + M_3_2 + M_4_1 + M_5_3 + M_6_2 + M_7_0 <= 7
EXCL_M_53: M_0_0 + 1 M_1_1 + 3.33066907388e-16 M_1_2 + M_2_3 + M_3_2 + M_4_1
 + M_5_0 + M_6_2 + M_7_3 <= 7
EXCL_M_54: M_0_0 + M_1_3 + M_2_1 + M_3_2 + M_4_1 + M_5_2 + M_6_3 + M_7_0 <= 7
EXCL_M_55: M_0_0 + M_1_3 + M_2_3 + M_3_2 + M_4_1 + M_5_2 + M_6_1 + M_7_0 <= 7
EXCL_M_56: M_0_0 + 1 M_1_3 + 1 M_2_1 + 1.11022302463e-16 M_2_3 + 1 M_3_2
 + M_4_1 + M_5_0 + 1 M_6_2 + M_7_3 <= 7
EXCL_M_57: M_0_3 + M_1_1 + M_2_3 + M_3_2 + M_4_1 + M_5_0 + M_6_2 + M_7_0 <= 7
EXCL_M_58: M_0_3 + M_1_3 + M_2_1 + M_3_2 + M_4_1 + M_5_0 + M_6_2 + M_7_0 <= 7
EXCL_M_59: M_0_3 + M_1_2 + M_2_3 + M_3_2 + M_4_1 + M_5_0 + M_6_1 + M_7_0 <= 7
EXCL_M_6: M_0_2 + M_1_1 + M_2_3 + M_3_3 + M_4_1 + M_5_0 + M_6_2 + M_7_0 <= 7
EXCL_M_60: M_0_2 + M_1_3 + M_2_3 + M_3_2 + M_4_1 + M_5_0 + M_6_1 + M_7_0 <= 7
EXCL_M_61: M_0_2 + M_1_3 + M_2_3 + M_3_2 + M_4_1 + M_5_0 + M_6_1 + M_7_0 <= 7
EXCL_M_62: M_0_0 + M_1_3 + M_2_3 + M_3_2 + M_4_1 + M_5_2 + M_6_1 + M_7_0 <= 7
EXCL_M_63: M_0_2 + M_1_1 + M_2_3 + M_3_2 + M_4_1 + M_5_0 + M_6_3 + M_7_0 <= 7
EXCL_M_64: M_0_1 + M_1_3 + M_2_3 + M_3_2 + M_4_1 + M_5_0 + M_6_2 + M_7_0 <= 7
EXCL_M_65: M_0_0 + M_1_3 + M_2_1 + M_3_2 + M_4_1 + M_5_3 + M_6_2 + M_7_0 <= 7
EXCL_M_66: M_0_0 + M_1_2 + M_2_3 + M_3_2 + M_4_1 + M_5_0 + M_6_1 + M_7_3 <= 7
EXCL_M_67: M_0_0 + M_1_2 + M_2_3 + M_3_2 + M_4_1 + M_5_1 + M_6_3 + M_7_0 <= 7
EXCL_M_68: M_0_0 + M_1_3 + M_2_3 + M_3_2 + M_4_1 + M_5_1 + M_6_2 + M_7_0 <= 7
EXCL_M_69: M_0_0 + M_1_3 + M_2_3 + M_3_2 + M_4_1 + M_5_1 + M_6_2 + M_7_0 <= 7
EXCL_M_7: M_0_0 + M_1_2 + M_2_3 + M_3_3 + M_4_1 + M_5_2 + M_6_1 + M_7_0 <= 7
EXCL_M_70: M_0_2 + M_1_1 + M_2_3 + M_3_2 + M_4_1 + M_5_0 + M_6_3 + M_7_0 <= 7
EXCL_M_71: M_0_3 + M_1_1 + M_2_3 + M_3_2 + M_4_1 + M_5_0 + M_6_2 + M_7_0 <= 7
EXCL_M_72: M_0_2 + M_1_3 + M_2_1 + M_3_2 + M_4_1 + M_5_0 + M_6_3 + M_7_0 <= 7
EXCL_M_73: M_0_3 + M_1_2 + M_2_1 + M_3_2 + M_4_1 + M_5_0 + M_6_3 + M_7_0 <= 7
EXCL_M_74: M_0_3 + M_1_2 + M_2_1 + M_3_2 + M_4_1 + M_5_0 + M_6_3 + M_7_0 <= 7
EXCL_M_75: M_0_2 + M_1_3 + M_2_1 + M_3_2 + M_4_1 + M_5_0 + M_6_3 + M_7_0 <= 7
EXCL_M_76: M_0_3 + M_1_3 + M_2_1 + M_3_2 + M_4_1 + M_5_0 + M_6_2 + M_7_0 <= 7
EXCL_M_77: M_0_0 + M_1_2 + M_2_1 + M_3_2 + M_4_1 + M_5_0 + M_6_3 + M_7_3 <= 7
EXCL_M_78: M_0_0 + M_1_2 + M_2_1 + M_3_2 + M_4_1 + M_5_0 + M_6_3 + M_7_3 <= 7
EXCL_M_79: M_0_3 + M_1_2 + M_2_3 + M_3_2 + M_4_1 + M_5_0 + M_6_1 + M_7_0 <= 7
EXCL_M_8: M_0_0 + M_1_2 + M_2_3 + M_3_3 + M_4_1 + M_5_2 + M_6_1 + M_7_0 <= 7
EXCL_M_80: M_0_0 + M_1_1 + M_2_3 + M_3_2 + M_4_1 + M_5_2 + M_6_3 + M_7_0 <= 7
EXCL_M_81: M_0_0 + M_1_1 + M_2_3 + M_3_2 + M_4_1 + M_5_0 + M_6_2 + M_7_3 <= 7
EXCL_M_82: M_0_0 + M_1_2 + M_2_1 + M_3_2 + M_4_1 + M_5_3 + M_6_3 + M_7_0 <= 7
EXCL_M_83: M_0_0 + M_1_2 + M_2_1 + M_3_2 + M_4_1 + M_5_3 + M_6_3 + M_7_0 <= 7
EXCL_M_84: M_0_0 + M_1_3 + M_2_1 + M_3_2 + M_4_1 + M_5_0 + M_6_2 + M_7_3 <= 7
EXCL_M_85: M_0_0 + 4.4408920985e-16 M_1_1 + 1 M_1_2 + M_2_3 + M_3_3 + M_4_1
 + M_5_0 + M_6_2 + M_7_1 <= 7
EXCL_M_86: M_0_0 + M_1_2 + M_2_3 + M_3_3 + M_4_1 + M_5_0 + M_6_2 + M_7_1 <= 7
EXCL_M_87: M_0_0 + M_1_3 + M_2_3 + M_3_1 + M_4_1 + M_5_2 + M_6_2 + M_7_0 <= 7
EXCL_M_88: M_0_0 + M_1_3 + M_2_3 + M_3_1 + M_4_1 + M_5_2 + M_6_2 + M_7_0 <= 7
EXCL_M_89: M_0_0 + M_1_2 + M_2_3 + M_3_1 + M_4_1 + M_5_2 + M_6_3 + M_7_0 <= 7
EXCL_M_9: M_0_0 + M_1_1 + M_2_3 + M_3_3 + M_4_1 + M_5_2 + M_6_2 + M_7_0 <= 7
EXCL_M_90: M_0_0 + M_1_2 + M_2_3 + M_3_1 + M_4_1 + M_5_2 + M_6_3 + M_7_0 <= 7
EXCL_M_91: M_0_2 + M_1_3 + M_2_3 + M_3_1 + M_4_1 + M_5_0 + M_6_2 + M_7_0 <= 7
EXCL_M_92: M_0_2 + M_1_3 + M_2_3 + M_3_1 + M_4_1 + M_5_0 + M_6_2 + M_7_0 <= 7
EXCL_M_93: M_0_0 + M_1_2 + M_2_3 + M_3_1 + M_4_1 + M_5_3 + M_6_2 + M_7_0 <= 7
EXCL_M_94: M_0_0 + M_1_2 + M_2_3 + M_3_1 + M_4_1 + M_5_3 + M_6_2 + M_7_0 <= 7
EXCL_M_95: M_0_3 + M_1_2 + M_2_3 + M_3_1 + M_4_1 + M_5_0 + M_6_2 + M_7_0 <= 7
EXCL_M_96: M_0_2 + M_1_2 + M_2_3 + M_3_1 + M_4_1 + M_5_0 + M_6_3 + M_7_0 <= 7
EXCL_M_97: M_0_0 + M_1_3 + M_2_3 + M_3_2 + M_4_1 + M_5_0 + M_6_1 + M_7_2 <= 7
EXCL_M_98: M_0_0 + M_1_3 + M_2_3 + M_3_2 + M_4_1 + M_5_0 + M_6_1 + M_7_2 <= 7
EXCL_M_99: M_0_0 + M_1_1 + M_2_3 + M_3_2 + M_4_1 + M_5_0 + M_6_3 + M_7_2 <= 7
LESS_CAP_3_0: M_0_0 + M_1_0 + M_2_0 + M_3_0 + M_4_0 + M_5_0 + M_6_0 + M_7_0
 <= 2
LESS_CAP_3_1: M_0_1 + M_1_1 + M_2_1 + M_3_1 + M_4_1 + M_5_1 + M_6_1 + M_7_1
 <= 2
LESS_CAP_3_2: M_0_2 + M_1_2 + M_2_2 + M_3_2 + M_4_2 + M_5_2 + M_6_2 + M_7_2
 <= 2
LESS_CAP_3_3: M_0_3 + M_1_3 + M_2_3 + M_3_3 + M_4_3 + M_5_3 + M_6_3 + M_7_3
 <= 2
LESS_ONE_3_0: M_0_0 + M_0_1 + M_0_2 + M_0_3 <= 1
LESS_ONE_3_1: M_1_0 + M_1_1 + M_1_2 + M_1_3 <= 1
LESS_ONE_3_2: M_2_0 + M_2_1 + M_2_2 + M_2_3 <= 1
LESS_ONE_3_3: M_3_0 + M_3_1 + M_3_2 + M_3_3 <= 1
LESS_ONE_3_4: M_4_0 + M_4_1 + M_4_2 + M_4_3 <= 1
LESS_ONE_3_5: M_5_0 + M_5_1 + M_5_2 + M_5_3 <= 1
LESS_ONE_3_6: M_6_0 + M_6_1 + M_6_2 + M_6_3 <= 1
LESS_ONE_3_7: M_7_0 + M_7_1 + M_7_2 + M_7_3 <= 1
PricingObjConstr: - 0.25 M_0_0 - 0.125 M_0_1 - 0.5 M_0_2 + 0.125 M_0_3
 - 0.25 M_1_0 + 0.875 M_1_1 - 0.5 M_1_2 + 0.125 M_1_3 + 0.5 M_2_0
 - 0.125 M_2_1 - 0.5 M_2_2 - 0.375 M_2_3 - 0.375 M_3_0 - 0.25 M_3_1
 - 0.5 M_3_2 - 0.125 M_3_3 - 0.125 M_4_0 - 0.25 M_4_1 - 0.5 M_4_2
 - 0.375 M_4_3 - 0.25 M_5_0 - 0.125 M_5_1 - 0.5 M_5_2 + 0.125 M_5_3
 - 0.25 M_6_0 + 0.875 M_6_1 - 0.5 M_6_2 + 0.125 M_6_3 - 0.125 M_7_0
 - 0.375 M_7_1 - 0.5 M_7_2 + 0.125 M_7_3 >= -1.375
Bounds
 t_0 free
 t_1 free
 t_2 free
 t_3 free
Binaries
M_0_0
M_0_1
M_0_2
M_0_3
M_1_0
M_1_1
M_1_2
M_1_3
M_2_0
M_2_1
M_2_2
M_2_3
M_3_0
M_3_1
M_3_2
M_3_3
M_4_0
M_4_1
M_4_2
M_4_3
M_5_0
M_5_1
M_5_2
M_5_3
M_6_0
M_6_1
M_6_2
M_6_3
M_7_0
M_7_1
M_7_2
M_7_3
f_0
f_1
f_2
f_3
End
